graph_generation/data/sat/ncsp/hexagonal_lattice_N_1_penalty-one_weights-one.txt
6 12 1 6 1
1 2 1
1 4 1
2 1 1
2 3 1
3 2 1
3 6 1
4 1 1
4 5 1
5 4 1
5 6 1
6 3 1
6 5 1
1 1
